(set-logic HORN)
(declare-datatypes ((Nat_1 0)) (((Z_0 ) (S_0 (unS_0 Nat_1)))))
(declare-fun diseqNat_0 (Nat_1 Nat_1) Bool)
(declare-fun unS_1 (Nat_1 Nat_1) Bool)
(declare-fun isZ_0 (Nat_1) Bool)
(declare-fun isS_0 (Nat_1) Bool)
(assert (forall ((x_139 Nat_1) (x_138 Nat_1))
	(=> (= x_139 (S_0 x_138))
	    (unS_1 x_138 x_139))))
(assert (isZ_0 Z_0))
(assert (forall ((x_140 Nat_1))
	(isS_0 (S_0 x_140))))
(assert (forall ((x_141 Nat_1))
	(diseqNat_0 Z_0 (S_0 x_141))))
(assert (forall ((x_142 Nat_1))
	(diseqNat_0 (S_0 x_142) Z_0)))
(assert (forall ((x_143 Nat_1) (x_144 Nat_1))
	(=> (diseqNat_0 x_143 x_144)
	    (diseqNat_0 (S_0 x_143) (S_0 x_144)))))
(declare-fun add_0 (Nat_1 Nat_1 Nat_1) Bool)
(declare-fun minus_1 (Nat_1 Nat_1 Nat_1) Bool)
(declare-fun le_0 (Nat_1 Nat_1) Bool)
(declare-fun ge_0 (Nat_1 Nat_1) Bool)
(declare-fun lt_1 (Nat_1 Nat_1) Bool)
(declare-fun gt_0 (Nat_1 Nat_1) Bool)
(declare-fun mult_0 (Nat_1 Nat_1 Nat_1) Bool)
(declare-fun div_0 (Nat_1 Nat_1 Nat_1) Bool)
(declare-fun mod_0 (Nat_1 Nat_1 Nat_1) Bool)
(assert (forall ((y_23 Nat_1))
	(add_0 y_23 Z_0 y_23)))
(assert (forall ((x_136 Nat_1) (y_23 Nat_1) (r_0 Nat_1))
	(=> (add_0 r_0 x_136 y_23)
	    (add_0 (S_0 r_0) (S_0 x_136) y_23))))
(assert (forall ((y_23 Nat_1))
	(minus_1 Z_0 Z_0 y_23)))
(assert (forall ((x_136 Nat_1) (y_23 Nat_1) (r_0 Nat_1))
	(=> (minus_1 r_0 x_136 y_23)
	    (minus_1 (S_0 r_0) (S_0 x_136) y_23))))
(assert (forall ((y_23 Nat_1))
	(le_0 Z_0 y_23)))
(assert (forall ((x_136 Nat_1) (y_23 Nat_1))
	(=> (le_0 x_136 y_23)
	    (le_0 (S_0 x_136) (S_0 y_23)))))
(assert (forall ((y_23 Nat_1))
	(ge_0 y_23 Z_0)))
(assert (forall ((x_136 Nat_1) (y_23 Nat_1))
	(=> (ge_0 x_136 y_23)
	    (ge_0 (S_0 x_136) (S_0 y_23)))))
(assert (forall ((y_23 Nat_1))
	(lt_1 Z_0 (S_0 y_23))))
(assert (forall ((x_136 Nat_1) (y_23 Nat_1))
	(=> (lt_1 x_136 y_23)
	    (lt_1 (S_0 x_136) (S_0 y_23)))))
(assert (forall ((y_23 Nat_1))
	(gt_0 (S_0 y_23) Z_0)))
(assert (forall ((x_136 Nat_1) (y_23 Nat_1))
	(=> (gt_0 x_136 y_23)
	    (gt_0 (S_0 x_136) (S_0 y_23)))))
(assert (forall ((y_23 Nat_1))
	(mult_0 Z_0 Z_0 y_23)))
(assert (forall ((x_136 Nat_1) (y_23 Nat_1) (r_0 Nat_1) (z_16 Nat_1))
	(=>	(and (mult_0 r_0 x_136 y_23)
			(add_0 z_16 r_0 y_23))
		(mult_0 z_16 (S_0 x_136) y_23))))
(assert (forall ((x_136 Nat_1) (y_23 Nat_1))
	(=> (lt_1 x_136 y_23)
	    (div_0 Z_0 x_136 y_23))))
(assert (forall ((x_136 Nat_1) (y_23 Nat_1) (r_0 Nat_1) (z_16 Nat_1))
	(=>	(and (ge_0 x_136 y_23)
			(minus_1 z_16 x_136 y_23)
			(div_0 r_0 z_16 y_23))
		(div_0 (S_0 r_0) x_136 y_23))))
(assert (forall ((x_136 Nat_1) (y_23 Nat_1))
	(=> (lt_1 x_136 y_23)
	    (mod_0 x_136 x_136 y_23))))
(assert (forall ((x_136 Nat_1) (y_23 Nat_1) (r_0 Nat_1) (z_16 Nat_1))
	(=>	(and (ge_0 x_136 y_23)
			(minus_1 z_16 x_136 y_23)
			(mod_0 r_0 z_16 y_23))
		(mod_0 r_0 x_136 y_23))))
(declare-datatypes ((Nat_0 0)) (((zero_0 ) (succ_0 (p_0 Nat_0)))))
(declare-fun diseqNat_1 (Nat_0 Nat_0) Bool)
(declare-fun p_1 (Nat_0 Nat_0) Bool)
(declare-fun iszero_0 (Nat_0) Bool)
(declare-fun issucc_0 (Nat_0) Bool)
(assert (forall ((x_147 Nat_0) (x_146 Nat_0))
	(=> (= x_147 (succ_0 x_146))
	    (p_1 x_146 x_147))))
(assert (iszero_0 zero_0))
(assert (forall ((x_148 Nat_0))
	(issucc_0 (succ_0 x_148))))
(assert (forall ((x_149 Nat_0))
	(diseqNat_1 zero_0 (succ_0 x_149))))
(assert (forall ((x_150 Nat_0))
	(diseqNat_1 (succ_0 x_150) zero_0)))
(assert (forall ((x_151 Nat_0) (x_152 Nat_0))
	(=> (diseqNat_1 x_151 x_152)
	    (diseqNat_1 (succ_0 x_151) (succ_0 x_152)))))
(declare-datatypes ((list_0 0)) (((nil_0 ) (cons_0 (head_0 Nat_0) (tail_0 list_0)))))
(declare-fun diseqlist_0 (list_0 list_0) Bool)
(declare-fun head_1 (Nat_0 list_0) Bool)
(declare-fun tail_1 (list_0 list_0) Bool)
(declare-fun isnil_0 (list_0) Bool)
(declare-fun iscons_0 (list_0) Bool)
(assert (forall ((x_156 list_0) (x_154 Nat_0) (x_155 list_0))
	(=> (= x_156 (cons_0 x_154 x_155))
	    (head_1 x_154 x_156))))
(assert (forall ((x_156 list_0) (x_154 Nat_0) (x_155 list_0))
	(=> (= x_156 (cons_0 x_154 x_155))
	    (tail_1 x_155 x_156))))
(assert (isnil_0 nil_0))
(assert (forall ((x_157 Nat_0) (x_158 list_0))
	(iscons_0 (cons_0 x_157 x_158))))
(assert (forall ((x_159 Nat_0) (x_160 list_0))
	(diseqlist_0 nil_0 (cons_0 x_159 x_160))))
(assert (forall ((x_161 Nat_0) (x_162 list_0))
	(diseqlist_0 (cons_0 x_161 x_162) nil_0)))
(assert (forall ((x_163 Nat_0) (x_164 list_0) (x_165 Nat_0) (x_166 list_0))
	(=> (diseqNat_1 x_163 x_165)
	    (diseqlist_0 (cons_0 x_163 x_164) (cons_0 x_165 x_166)))))
(assert (forall ((x_163 Nat_0) (x_164 list_0) (x_165 Nat_0) (x_166 list_0))
	(=> (diseqlist_0 x_164 x_166)
	    (diseqlist_0 (cons_0 x_163 x_164) (cons_0 x_165 x_166)))))
(declare-datatypes ((pair_0 0)) (((pair_1 (projpair_0 list_0) (projpair_1 list_0)))))
(declare-fun diseqpair_0 (pair_0 pair_0) Bool)
(declare-fun projpair_2 (list_0 pair_0) Bool)
(declare-fun projpair_3 (list_0 pair_0) Bool)
(declare-fun ispair_0 (pair_0) Bool)
(assert (forall ((x_169 pair_0) (x_167 list_0) (x_168 list_0))
	(=> (= x_169 (pair_1 x_167 x_168))
	    (projpair_2 x_167 x_169))))
(assert (forall ((x_169 pair_0) (x_167 list_0) (x_168 list_0))
	(=> (= x_169 (pair_1 x_167 x_168))
	    (projpair_3 x_168 x_169))))
(assert (forall ((x_170 list_0) (x_171 list_0))
	(ispair_0 (pair_1 x_170 x_171))))
(assert (forall ((x_172 list_0) (x_173 list_0) (x_174 list_0) (x_175 list_0))
	(=> (diseqlist_0 x_172 x_174)
	    (diseqpair_0 (pair_1 x_172 x_173) (pair_1 x_174 x_175)))))
(assert (forall ((x_172 list_0) (x_173 list_0) (x_174 list_0) (x_175 list_0))
	(=> (diseqlist_0 x_173 x_175)
	    (diseqpair_0 (pair_1 x_172 x_173) (pair_1 x_174 x_175)))))
(declare-fun take_0 (list_0 Nat_0 list_0) Bool)
(assert (forall ((x_0 Nat_0) (y_0 list_0) (z_0 Nat_0) (z_1 Nat_0) (xs_0 list_0) (x_33 list_0) (x_34 list_0))
	(=>	(and (= x_33 (cons_0 z_1 x_34))
			(take_0 x_34 z_0 xs_0)
			(= x_0 (succ_0 z_0))
			(= y_0 (cons_0 z_1 xs_0)))
		(take_0 x_33 x_0 y_0))))
(assert (forall ((x_0 Nat_0) (y_0 list_0) (z_0 Nat_0) (x_35 list_0))
	(=>	(and (= x_35 nil_0)
			(= x_0 (succ_0 z_0))
			(= y_0 nil_0))
		(take_0 x_35 x_0 y_0))))
(assert (forall ((x_0 Nat_0) (y_0 list_0) (x_36 list_0))
	(=>	(and (= x_36 nil_0)
			(= x_0 zero_0))
		(take_0 x_36 x_0 y_0))))
(declare-fun plus_0 (Nat_0 Nat_0 Nat_0) Bool)
(assert (forall ((x_1 Nat_0) (y_1 Nat_0) (z_2 Nat_0) (x_37 Nat_0) (x_38 Nat_0))
	(=>	(and (= x_37 (succ_0 x_38))
			(plus_0 x_38 z_2 y_1)
			(= x_1 (succ_0 z_2)))
		(plus_0 x_37 x_1 y_1))))
(assert (forall ((x_1 Nat_0) (y_1 Nat_0) (x_39 Nat_0))
	(=>	(and (= x_39 y_1)
			(= x_1 zero_0))
		(plus_0 x_39 x_1 y_1))))
(declare-fun times_0 (Nat_0 Nat_0 Nat_0) Bool)
(assert (forall ((x_2 Nat_0) (y_2 Nat_0) (z_3 Nat_0) (x_40 Nat_0) (x_41 Nat_0) (x_42 Nat_0))
	(=>	(and (= x_40 x_42)
			(times_0 x_41 z_3 y_2)
			(plus_0 x_42 y_2 x_41)
			(= x_2 (succ_0 z_3)))
		(times_0 x_40 x_2 y_2))))
(assert (forall ((x_2 Nat_0) (y_2 Nat_0) (x_43 Nat_0))
	(=>	(and (= x_43 zero_0)
			(= x_2 zero_0))
		(times_0 x_43 x_2 y_2))))
(declare-fun minus_0 (Nat_0 Nat_0 Nat_0) Bool)
(assert (forall ((x_3 Nat_0) (y_3 Nat_0) (z_4 Nat_0) (y_4 Nat_0) (x_44 Nat_0) (x_45 Nat_0))
	(=>	(and (= x_44 x_45)
			(minus_0 x_45 z_4 y_4)
			(= x_3 (succ_0 z_4))
			(= y_3 (succ_0 y_4)))
		(minus_0 x_44 x_3 y_3))))
(assert (forall ((x_3 Nat_0) (y_3 Nat_0) (z_4 Nat_0) (x_46 Nat_0))
	(=>	(and (= x_46 zero_0)
			(= x_3 (succ_0 z_4))
			(= y_3 zero_0))
		(minus_0 x_46 x_3 y_3))))
(assert (forall ((x_3 Nat_0) (y_3 Nat_0) (x_47 Nat_0))
	(=>	(and (= x_47 zero_0)
			(= x_3 zero_0))
		(minus_0 x_47 x_3 y_3))))
(declare-fun lt_0 (Bool Nat_0 Nat_0) Bool)
(assert (forall ((x_4 Nat_0) (y_5 Nat_0) (z_5 Nat_0) (n_0 Nat_0) (x_48 Bool) (x_49 Bool))
	(=>	(and (= x_48 x_49)
			(lt_0 x_49 n_0 z_5)
			(= y_5 (succ_0 z_5))
			(= x_4 (succ_0 n_0)))
		(lt_0 x_48 x_4 y_5))))
(assert (forall ((x_4 Nat_0) (y_5 Nat_0) (z_5 Nat_0) (x_50 Bool))
	(=>	(and (= x_50 true)
			(= y_5 (succ_0 z_5))
			(= x_4 zero_0))
		(lt_0 x_50 x_4 y_5))))
(assert (forall ((x_4 Nat_0) (y_5 Nat_0) (x_51 Bool))
	(=>	(and (= x_51 false)
			(= y_5 zero_0))
		(lt_0 x_51 x_4 y_5))))
(declare-fun leq_0 (Bool Nat_0 Nat_0) Bool)
(assert (forall ((x_5 Nat_0) (y_6 Nat_0) (z_6 Nat_0) (x_6 Nat_0) (x_52 Bool) (x_53 Bool))
	(=>	(and (= x_52 x_53)
			(leq_0 x_53 z_6 x_6)
			(= x_5 (succ_0 z_6))
			(= y_6 (succ_0 x_6)))
		(leq_0 x_52 x_5 y_6))))
(assert (forall ((x_5 Nat_0) (y_6 Nat_0) (z_6 Nat_0) (x_54 Bool))
	(=>	(and (= x_54 false)
			(= x_5 (succ_0 z_6))
			(= y_6 zero_0))
		(leq_0 x_54 x_5 y_6))))
(assert (forall ((x_5 Nat_0) (y_6 Nat_0) (x_55 Bool))
	(=>	(and (= x_55 true)
			(= x_5 zero_0))
		(leq_0 x_55 x_5 y_6))))
(declare-fun ordered_0 (Bool list_0) Bool)
(assert (forall ((x_7 list_0) (y_7 Nat_0) (z_7 list_0) (y_8 Nat_0) (xs_1 list_0) (x_56 Bool) (x_57 Bool) (x_58 Bool))
	(=>	(and (= x_56 (and x_57 x_58))
			(leq_0 x_57 y_7 y_8)
			(ordered_0 x_58 (cons_0 y_8 xs_1))
			(= x_7 (cons_0 y_7 z_7))
			(= z_7 (cons_0 y_8 xs_1)))
		(ordered_0 x_56 x_7))))
(assert (forall ((x_7 list_0) (y_7 Nat_0) (z_7 list_0) (x_59 Bool))
	(=>	(and (= x_59 true)
			(= x_7 (cons_0 y_7 z_7))
			(= z_7 nil_0))
		(ordered_0 x_59 x_7))))
(assert (forall ((x_7 list_0) (x_60 Bool))
	(=>	(and (= x_60 true)
			(= x_7 nil_0))
		(ordered_0 x_60 x_7))))
(declare-fun sort_0 (list_0 Nat_0 Nat_0) Bool)
(assert (forall ((x_8 Nat_0) (y_9 Nat_0) (x_62 list_0) (x_61 Bool))
	(=>	(and (= x_62 (cons_0 x_8 (cons_0 y_9 nil_0)))
			(= x_61 true)
			(leq_0 x_61 x_8 y_9))
		(sort_0 x_62 x_8 y_9))))
(assert (forall ((x_8 Nat_0) (y_9 Nat_0) (x_64 list_0) (x_63 Bool))
	(=>	(and (= x_64 (cons_0 y_9 (cons_0 x_8 nil_0)))
			(= x_63 false)
			(leq_0 x_63 x_8 y_9))
		(sort_0 x_64 x_8 y_9))))
(declare-fun length_0 (Nat_0 list_0) Bool)
(assert (forall ((x_9 list_0) (y_10 Nat_0) (l_0 list_0) (x_65 Nat_0) (x_66 Nat_0) (x_67 Nat_0))
	(=>	(and (= x_65 x_67)
			(length_0 x_66 l_0)
			(plus_0 x_67 (succ_0 zero_0) x_66)
			(= x_9 (cons_0 y_10 l_0)))
		(length_0 x_65 x_9))))
(assert (forall ((x_9 list_0) (x_68 Nat_0))
	(=>	(and (= x_68 zero_0)
			(= x_9 nil_0))
		(length_0 x_68 x_9))))
(declare-fun idiv_0 (Nat_0 Nat_0 Nat_0) Bool)
(assert (forall ((x_10 Nat_0) (y_11 Nat_0) (x_70 Nat_0) (x_69 Bool))
	(=>	(and (= x_70 zero_0)
			(= x_69 true)
			(lt_0 x_69 x_10 y_11))
		(idiv_0 x_70 x_10 y_11))))
(assert (forall ((x_10 Nat_0) (y_11 Nat_0) (x_72 Nat_0) (x_73 Nat_0) (x_74 Nat_0) (x_71 Bool))
	(=>	(and (= x_72 (succ_0 x_74))
			(minus_0 x_73 x_10 y_11)
			(idiv_0 x_74 x_73 y_11)
			(= x_71 false)
			(lt_0 x_71 x_10 y_11))
		(idiv_0 x_72 x_10 y_11))))
(declare-fun drop_0 (list_0 Nat_0 list_0) Bool)
(assert (forall ((x_11 Nat_0) (y_12 list_0) (z_8 Nat_0) (z_9 Nat_0) (xs_2 list_0) (x_75 list_0) (x_76 list_0))
	(=>	(and (= x_75 x_76)
			(drop_0 x_76 z_8 xs_2)
			(= x_11 (succ_0 z_8))
			(= y_12 (cons_0 z_9 xs_2)))
		(drop_0 x_75 x_11 y_12))))
(assert (forall ((x_11 Nat_0) (y_12 list_0) (z_8 Nat_0) (x_77 list_0))
	(=>	(and (= x_77 nil_0)
			(= x_11 (succ_0 z_8))
			(= y_12 nil_0))
		(drop_0 x_77 x_11 y_12))))
(assert (forall ((x_11 Nat_0) (y_12 list_0) (x_78 list_0))
	(=>	(and (= x_78 y_12)
			(= x_11 zero_0))
		(drop_0 x_78 x_11 y_12))))
(declare-fun splitAt_0 (pair_0 Nat_0 list_0) Bool)
(assert (forall ((x_12 Nat_0) (y_13 list_0) (x_79 pair_0) (x_80 list_0) (x_81 list_0))
	(=>	(and (= x_79 (pair_1 x_80 x_81))
			(take_0 x_80 x_12 y_13)
			(drop_0 x_81 x_12 y_13))
		(splitAt_0 x_79 x_12 y_13))))
(declare-fun x_13 (list_0 list_0 list_0) Bool)
(assert (forall ((x_14 list_0) (y_14 list_0) (z_10 Nat_0) (xs_3 list_0) (x_82 list_0) (x_83 list_0))
	(=>	(and (= x_82 (cons_0 z_10 x_83))
			(x_13 x_83 xs_3 y_14)
			(= x_14 (cons_0 z_10 xs_3)))
		(x_13 x_82 x_14 y_14))))
(assert (forall ((x_14 list_0) (y_14 list_0) (x_84 list_0))
	(=>	(and (= x_84 y_14)
			(= x_14 nil_0))
		(x_13 x_84 x_14 y_14))))
(declare-fun stoogesort_0 (list_0 list_0) Bool)
(declare-fun stoogesort_1 (list_0 list_0) Bool)
(declare-fun stoogesort_2 (list_0 list_0) Bool)
(assert (forall ((x_15 list_0) (ys_0 list_0) (zs_0 list_0) (x_89 list_0) (x_90 list_0) (x_91 list_0) (x_85 Nat_0) (x_86 Nat_0) (x_87 Nat_0) (x_88 pair_0))
	(=>	(and (= x_89 x_91)
			(stoogesort_1 x_90 ys_0)
			(x_13 x_91 x_90 zs_0)
			(= x_88 (pair_1 ys_0 zs_0))
			(length_0 x_85 x_15)
			(times_0 x_86 (succ_0 (succ_0 zero_0)) x_85)
			(idiv_0 x_87 (succ_0 x_86) (succ_0 (succ_0 (succ_0 zero_0))))
			(splitAt_0 x_88 x_87 x_15))
		(stoogesort_0 x_89 x_15))))
(assert (forall ((x_16 list_0) (y_15 Nat_0) (z_11 list_0) (y_16 Nat_0) (x_17 list_0) (x_18 Nat_0) (x_19 list_0) (x_92 list_0) (x_93 list_0) (x_94 list_0) (x_95 list_0))
	(=>	(and (= x_92 x_95)
			(stoogesort_0 x_93 (cons_0 y_15 (cons_0 y_16 (cons_0 x_18 x_19))))
			(stoogesort_2 x_94 x_93)
			(stoogesort_0 x_95 x_94)
			(= x_16 (cons_0 y_15 z_11))
			(= z_11 (cons_0 y_16 x_17))
			(= x_17 (cons_0 x_18 x_19)))
		(stoogesort_1 x_92 x_16))))
(assert (forall ((x_16 list_0) (y_15 Nat_0) (z_11 list_0) (y_16 Nat_0) (x_17 list_0) (x_96 list_0) (x_97 list_0))
	(=>	(and (= x_96 x_97)
			(sort_0 x_97 y_15 y_16)
			(= x_16 (cons_0 y_15 z_11))
			(= z_11 (cons_0 y_16 x_17))
			(= x_17 nil_0))
		(stoogesort_1 x_96 x_16))))
(assert (forall ((x_16 list_0) (y_15 Nat_0) (z_11 list_0) (x_98 list_0))
	(=>	(and (= x_98 (cons_0 y_15 nil_0))
			(= x_16 (cons_0 y_15 z_11))
			(= z_11 nil_0))
		(stoogesort_1 x_98 x_16))))
(assert (forall ((x_16 list_0) (x_99 list_0))
	(=>	(and (= x_99 nil_0)
			(= x_16 nil_0))
		(stoogesort_1 x_99 x_16))))
(assert (forall ((x_20 list_0) (ys_1 list_0) (zs_1 list_0) (x_103 list_0) (x_104 list_0) (x_105 list_0) (x_100 Nat_0) (x_101 Nat_0) (x_102 pair_0))
	(=>	(and (= x_103 x_105)
			(stoogesort_1 x_104 zs_1)
			(x_13 x_105 ys_1 x_104)
			(= x_102 (pair_1 ys_1 zs_1))
			(length_0 x_100 x_20)
			(idiv_0 x_101 x_100 (succ_0 (succ_0 (succ_0 zero_0))))
			(splitAt_0 x_102 x_101 x_20))
		(stoogesort_2 x_103 x_20))))
(assert (forall ((x_21 Nat_0) (y_17 Nat_0) (z_12 Nat_0) (x_106 Nat_0) (x_107 Nat_0) (x_108 Nat_0) (x_109 Nat_0))
	(=>	(and (diseqNat_1 x_107 x_109)
			(times_0 x_106 y_17 z_12)
			(times_0 x_107 x_21 x_106)
			(times_0 x_108 x_21 y_17)
			(times_0 x_109 x_108 z_12))
		false)))
(assert (forall ((x_22 Nat_0) (y_18 Nat_0) (z_13 Nat_0) (x_110 Nat_0) (x_111 Nat_0) (x_112 Nat_0) (x_113 Nat_0))
	(=>	(and (diseqNat_1 x_111 x_113)
			(plus_0 x_110 y_18 z_13)
			(plus_0 x_111 x_22 x_110)
			(plus_0 x_112 x_22 y_18)
			(plus_0 x_113 x_112 z_13))
		false)))
(assert (forall ((x_23 Nat_0) (y_19 Nat_0) (x_114 Nat_0) (x_115 Nat_0))
	(=>	(and (diseqNat_1 x_114 x_115)
			(times_0 x_114 x_23 y_19)
			(times_0 x_115 y_19 x_23))
		false)))
(assert (forall ((x_24 Nat_0) (y_20 Nat_0) (x_116 Nat_0) (x_117 Nat_0))
	(=>	(and (diseqNat_1 x_116 x_117)
			(plus_0 x_116 x_24 y_20)
			(plus_0 x_117 y_20 x_24))
		false)))
(assert (forall ((x_25 Nat_0) (y_21 Nat_0) (z_14 Nat_0) (x_118 Nat_0) (x_119 Nat_0) (x_120 Nat_0) (x_121 Nat_0) (x_122 Nat_0))
	(=>	(and (diseqNat_1 x_119 x_122)
			(plus_0 x_118 y_21 z_14)
			(times_0 x_119 x_25 x_118)
			(times_0 x_120 x_25 y_21)
			(times_0 x_121 x_25 z_14)
			(plus_0 x_122 x_120 x_121))
		false)))
(assert (forall ((x_26 Nat_0) (y_22 Nat_0) (z_15 Nat_0) (x_123 Nat_0) (x_124 Nat_0) (x_125 Nat_0) (x_126 Nat_0) (x_127 Nat_0))
	(=>	(and (diseqNat_1 x_124 x_127)
			(plus_0 x_123 x_26 y_22)
			(times_0 x_124 x_123 z_15)
			(times_0 x_125 x_26 z_15)
			(times_0 x_126 y_22 z_15)
			(plus_0 x_127 x_125 x_126))
		false)))
(assert (forall ((x_27 Nat_0) (x_128 Nat_0))
	(=>	(and (diseqNat_1 x_128 x_27)
			(times_0 x_128 x_27 (succ_0 zero_0)))
		false)))
(assert (forall ((x_28 Nat_0) (x_129 Nat_0))
	(=>	(and (diseqNat_1 x_129 x_28)
			(times_0 x_129 (succ_0 zero_0) x_28))
		false)))
(assert (forall ((x_29 Nat_0) (x_130 Nat_0))
	(=>	(and (diseqNat_1 x_130 x_29)
			(plus_0 x_130 x_29 zero_0))
		false)))
(assert (forall ((x_30 Nat_0) (x_131 Nat_0))
	(=>	(and (diseqNat_1 x_131 x_30)
			(plus_0 x_131 zero_0 x_30))
		false)))
(assert (forall ((x_31 Nat_0) (x_132 Nat_0))
	(=>	(and (diseqNat_1 x_132 zero_0)
			(times_0 x_132 x_31 zero_0))
		false)))
(assert (forall ((x_32 Nat_0) (x_133 Nat_0))
	(=>	(and (diseqNat_1 x_133 zero_0)
			(times_0 x_133 zero_0 x_32))
		false)))
(assert (forall ((xs_4 list_0) (x_134 list_0) (x_135 Bool))
	(=>	(and (= x_135 false)
			(stoogesort_1 x_134 xs_4)
			(ordered_0 x_135 x_134))
		false)))
(check-sat)
